# Packmol input for a SCRAP molecular-dynamics system.


tolerance 2.0 
add_box_sides 2.0

output polymerdrug.pdb

structure mpeg2kpcl2knpt4ns.pdb
number 30
#  atoms 504
#    inside sphere 0. 0. 0. 20. 
#  end atoms
#  atoms 5
#    outside sphere 0. 0. 0. 80.
#  end atoms
inside box 0. 0. 0. 130. 130. 130.
end structure 

structure ptx.pdb
  number 20
#  atoms 1
#    inside sphere 0. 0. 0. 15. 
#  end atoms
#  atoms 73
#    outside sphere 0. 0. 0. 30.
#  end atoms
inside box 0. 0. 0. 130. 130. 130.
end structure
